BAYES
256
2 2 2 2 2 2 2 2 2 2 2 2 2 2 2 2 2 2 2 2 2 2 2 2 2 2 2 2 2 2 2 2 2 2 2 2 2 2 2 2 2 2 2 2 2 2 2 2 2 2 2 2 2 2 2 2 2 2 2 2 2 2 2 2 2 2 2 2 2 2 2 2 2 2 2 2 2 2 2 2 2 2 2 2 2 2 2 2 2 2 2 2 2 2 2 2 2 2 2 2 2 2 2 2 2 2 2 2 2 2 2 2 2 2 2 2 2 2 2 2 2 2 2 2 2 2 2 2 2 2 2 2 2 2 2 2 2 2 2 2 2 2 2 2 2 2 2 2 2 2 2 2 2 2 2 2 2 2 2 2 2 2 2 2 2 2 2 2 2 2 2 2 2 2 2 2 2 2 2 2 2 2 2 2 2 2 2 2 2 2 2 2 2 2 2 2 2 2 2 2 2 2 2 2 2 2 2 2 2 2 2 2 2 2 2 2 2 2 2 2 2 2 2 2 2 2 2 2 2 2 2 2 2 2 2 2 2 2 2 2 2 2 2 2 2 2 2 2 2 2 2 2 2 2 2 2
256
1 0
2 0 1
2 1 2
2 2 3
2 3 4
2 4 5
2 5 6
2 6 7
2 7 8
2 8 9
2 9 10
2 10 11
2 11 12
2 12 13
2 13 14
2 14 15
2 0 16
3 1 16 17
3 2 17 18
3 3 18 19
3 4 19 20
3 5 20 21
3 6 21 22
3 7 22 23
3 8 23 24
3 9 24 25
3 10 25 26
3 11 26 27
3 12 27 28
3 13 28 29
3 14 29 30
3 15 30 31
2 16 32
3 17 32 33
3 18 33 34
3 19 34 35
3 20 35 36
3 21 36 37
3 22 37 38
3 23 38 39
3 24 39 40
3 25 40 41
3 26 41 42
3 27 42 43
3 28 43 44
3 29 44 45
3 30 45 46
3 31 46 47
2 32 48
3 33 48 49
3 34 49 50
3 35 50 51
3 36 51 52
3 37 52 53
3 38 53 54
3 39 54 55
3 40 55 56
3 41 56 57
3 42 57 58
3 43 58 59
3 44 59 60
3 45 60 61
3 46 61 62
3 47 62 63
2 48 64
3 49 64 65
3 50 65 66
3 51 66 67
3 52 67 68
3 53 68 69
3 54 69 70
3 55 70 71
3 56 71 72
3 57 72 73
3 58 73 74
3 59 74 75
3 60 75 76
3 61 76 77
3 62 77 78
3 63 78 79
2 64 80
3 65 80 81
3 66 81 82
3 67 82 83
3 68 83 84
3 69 84 85
3 70 85 86
3 71 86 87
3 72 87 88
3 73 88 89
3 74 89 90
3 75 90 91
3 76 91 92
3 77 92 93
3 78 93 94
3 79 94 95
2 80 96
3 81 96 97
3 82 97 98
3 83 98 99
3 84 99 100
3 85 100 101
3 86 101 102
3 87 102 103
3 88 103 104
3 89 104 105
3 90 105 106
3 91 106 107
3 92 107 108
3 93 108 109
3 94 109 110
3 95 110 111
2 96 112
3 97 112 113
3 98 113 114
3 99 114 115
3 100 115 116
3 101 116 117
3 102 117 118
3 103 118 119
3 104 119 120
3 105 120 121
3 106 121 122
3 107 122 123
3 108 123 124
3 109 124 125
3 110 125 126
3 111 126 127
2 112 128
3 113 128 129
3 114 129 130
3 115 130 131
3 116 131 132
3 117 132 133
3 118 133 134
3 119 134 135
3 120 135 136
3 121 136 137
3 122 137 138
3 123 138 139
3 124 139 140
3 125 140 141
3 126 141 142
3 127 142 143
2 128 144
3 129 144 145
3 130 145 146
3 131 146 147
3 132 147 148
3 133 148 149
3 134 149 150
3 135 150 151
3 136 151 152
3 137 152 153
3 138 153 154
3 139 154 155
3 140 155 156
3 141 156 157
3 142 157 158
3 143 158 159
2 144 160
3 145 160 161
3 146 161 162
3 147 162 163
3 148 163 164
3 149 164 165
3 150 165 166
3 151 166 167
3 152 167 168
3 153 168 169
3 154 169 170
3 155 170 171
3 156 171 172
3 157 172 173
3 158 173 174
3 159 174 175
2 160 176
3 161 176 177
3 162 177 178
3 163 178 179
3 164 179 180
3 165 180 181
3 166 181 182
3 167 182 183
3 168 183 184
3 169 184 185
3 170 185 186
3 171 186 187
3 172 187 188
3 173 188 189
3 174 189 190
3 175 190 191
2 176 192
3 177 192 193
3 178 193 194
3 179 194 195
3 180 195 196
3 181 196 197
3 182 197 198
3 183 198 199
3 184 199 200
3 185 200 201
3 186 201 202
3 187 202 203
3 188 203 204
3 189 204 205
3 190 205 206
3 191 206 207
2 192 208
3 193 208 209
3 194 209 210
3 195 210 211
3 196 211 212
3 197 212 213
3 198 213 214
3 199 214 215
3 200 215 216
3 201 216 217
3 202 217 218
3 203 218 219
3 204 219 220
3 205 220 221
3 206 221 222
3 207 222 223
2 208 224
3 209 224 225
3 210 225 226
3 211 226 227
3 212 227 228
3 213 228 229
3 214 229 230
3 215 230 231
3 216 231 232
3 217 232 233
3 218 233 234
3 219 234 235
3 220 235 236
3 221 236 237
3 222 237 238
3 223 238 239
2 224 240
3 225 240 241
3 226 241 242
3 227 242 243
3 228 243 244
3 229 244 245
3 230 245 246
3 231 246 247
3 232 247 248
3 233 248 249
3 234 249 250
3 235 250 251
3 236 251 252
3 237 252 253
3 238 253 254
3 239 254 255

2
0.579774 0.420226
4
0.0457621 0.954238 0.683474 0.316526
4
0.0 1.0 1.0 0.0
4
1.0 0.0 0.0 1.0
4
0.0 1.0 1.0 0.0
4
1.0 0.0 0.0 1.0
4
1.0 0.0 0.0 1.0
4
0.0 1.0 1.0 0.0
4
1.0 0.0 0.0 1.0
4
1.0 0.0 0.0 1.0
4
1.0 0.0 0.0 1.0
4
1.0 0.0 0.0 1.0
4
0.0 1.0 1.0 0.0
4
1.0 0.0 0.0 1.0
4
0.0 1.0 1.0 0.0
4
0.829331 0.170669 0.203101 0.796899
4
0.512805 0.487195 0.608197 0.391803
8
1.0 0.0 0.0 1.0 1.0 0.0 1.0 0.0
8
0.0 1.0 0.0 1.0 0.0 1.0 1.0 0.0
8
1.0 0.0 1.0 0.0 1.0 0.0 0.0 1.0
8
0.585511 0.414489 0.298848 0.701152 0.378933 0.621067 0.838614 0.161386
8
1.0 0.0 0.0 1.0 1.0 0.0 0.0 1.0
8
0.998625 0.00137484 0.606499 0.393501 0.430308 0.569692 0.606822 0.393178
8
0.0 1.0 0.0 1.0 1.0 0.0 1.0 0.0
8
1.0 0.0 0.0 1.0 1.0 0.0 1.0 0.0
8
1.0 0.0 1.0 0.0 0.0 1.0 0.0 1.0
8
1.0 0.0 0.0 1.0 0.0 1.0 1.0 0.0
8
1.0 0.0 1.0 0.0 1.0 0.0 0.0 1.0
8
1.0 0.0 0.0 1.0 1.0 0.0 1.0 0.0
8
1.0 0.0 1.0 0.0 1.0 0.0 0.0 1.0
8
0.0 1.0 1.0 0.0 1.0 0.0 1.0 0.0
8
0.0 1.0 1.0 0.0 0.0 1.0 0.0 1.0
4
1.0 0.0 0.0 1.0
8
0.0 1.0 1.0 0.0 1.0 0.0 1.0 0.0
8
0.0 1.0 0.0 1.0 0.0 1.0 1.0 0.0
8
0.0 1.0 0.0 1.0 1.0 0.0 1.0 0.0
8
0.0 1.0 0.0 1.0 1.0 0.0 1.0 0.0
8
1.0 0.0 0.0 1.0 0.0 1.0 0.0 1.0
8
1.0 0.0 0.0 1.0 1.0 0.0 0.0 1.0
8
0.0 1.0 0.0 1.0 0.0 1.0 1.0 0.0
8
0.0 1.0 1.0 0.0 0.0 1.0 0.0 1.0
8
0.0 1.0 0.0 1.0 1.0 0.0 1.0 0.0
8
0.0 1.0 1.0 0.0 0.0 1.0 0.0 1.0
8
1.0 0.0 0.0 1.0 1.0 0.0 1.0 0.0
8
0.0 1.0 1.0 0.0 1.0 0.0 0.0 1.0
8
1.0 0.0 1.0 0.0 0.0 1.0 1.0 0.0
8
0.0 1.0 0.0 1.0 0.0 1.0 1.0 0.0
8
0.0 1.0 0.0 1.0 1.0 0.0 0.0 1.0
4
1.0 0.0 0.0 1.0
8
0.0 1.0 0.0 1.0 0.0 1.0 1.0 0.0
8
1.0 0.0 0.0 1.0 1.0 0.0 1.0 0.0
8
0.826743 0.173257 0.411061 0.588939 0.835681 0.164319 0.587382 0.412618
8
1.0 0.0 0.0 1.0 1.0 0.0 1.0 0.0
8
0.370468 0.629532 0.349737 0.650263 0.341986 0.658014 0.62027 0.37973
8
1.0 0.0 0.0 1.0 1.0 0.0 0.0 1.0
8
1.0 0.0 0.0 1.0 1.0 0.0 1.0 0.0
8
0.0 1.0 1.0 0.0 1.0 0.0 1.0 0.0
8
0.0 1.0 1.0 0.0 0.0 1.0 0.0 1.0
8
0.243201 0.756799 0.482624 0.517376 0.128886 0.871114 0.77544 0.22456
8
0.0 1.0 1.0 0.0 1.0 0.0 0.0 1.0
8
1.0 0.0 1.0 0.0 1.0 0.0 0.0 1.0
8
1.0 0.0 0.0 1.0 0.0 1.0 0.0 1.0
8
0.550833 0.449167 0.0177707 0.982229 0.848063 0.151937 0.378686 0.621314
8
1.0 0.0 0.0 1.0 1.0 0.0 0.0 1.0
4
1.0 0.0 0.0 1.0
8
1.0 0.0 1.0 0.0 1.0 0.0 0.0 1.0
8
0.0 1.0 1.0 0.0 1.0 0.0 0.0 1.0
8
1.0 0.0 0.0 1.0 1.0 0.0 0.0 1.0
8
0.233738 0.766262 0.0206611 0.979339 0.872181 0.127819 0.784571 0.215429
8
0.0 1.0 0.0 1.0 0.0 1.0 1.0 0.0
8
1.0 0.0 1.0 0.0 0.0 1.0 0.0 1.0
8
1.0 0.0 0.0 1.0 1.0 0.0 0.0 1.0
8
1.0 0.0 0.0 1.0 1.0 0.0 1.0 0.0
8
0.0 1.0 1.0 0.0 1.0 0.0 0.0 1.0
8
0.0 1.0 0.0 1.0 1.0 0.0 0.0 1.0
8
1.0 0.0 0.0 1.0 0.0 1.0 1.0 0.0
8
1.0 0.0 0.0 1.0 0.0 1.0 0.0 1.0
8
1.0 0.0 0.0 1.0 1.0 0.0 0.0 1.0
8
0.0 1.0 1.0 0.0 0.0 1.0 1.0 0.0
8
0.772261 0.227739 0.479062 0.520938 0.728848 0.271152 0.497334 0.502666
4
1.0 0.0 0.0 1.0
8
0.0 1.0 1.0 0.0 0.0 1.0 0.0 1.0
8
1.0 0.0 0.0 1.0 1.0 0.0 1.0 0.0
8
0.0 1.0 0.0 1.0 1.0 0.0 0.0 1.0
8
1.0 0.0 0.0 1.0 1.0 0.0 1.0 0.0
8
1.0 0.0 1.0 0.0 0.0 1.0 0.0 1.0
8
0.0 1.0 1.0 0.0 0.0 1.0 1.0 0.0
8
0.0 1.0 1.0 0.0 0.0 1.0 0.0 1.0
8
0.0 1.0 0.0 1.0 0.0 1.0 1.0 0.0
8
0.57439 0.42561 0.251304 0.748696 0.0830976 0.916902 0.163367 0.836633
8
0.0 1.0 1.0 0.0 1.0 0.0 1.0 0.0
8
0.840054 0.159946 0.062955 0.937045 0.239623 0.760377 0.429306 0.570694
8
0.0 1.0 0.0 1.0 1.0 0.0 0.0 1.0
8
0.0 1.0 0.0 1.0 1.0 0.0 1.0 0.0
8
0.0 1.0 1.0 0.0 0.0 1.0 0.0 1.0
8
1.0 0.0 1.0 0.0 0.0 1.0 1.0 0.0
4
1.0 0.0 0.0 1.0
8
1.0 0.0 1.0 0.0 0.0 1.0 1.0 0.0
8
0.9438 0.0561996 0.743261 0.256739 0.748369 0.251631 0.00231782 0.997682
8
0.0 1.0 1.0 0.0 1.0 0.0 1.0 0.0
8
1.0 0.0 0.0 1.0 0.0 1.0 0.0 1.0
8
0.0 1.0 0.0 1.0 1.0 0.0 0.0 1.0
8
0.0 1.0 1.0 0.0 0.0 1.0 0.0 1.0
8
0.36621 0.63379 0.072706 0.927294 0.619645 0.380355 0.680164 0.319836
8
0.563446 0.436554 0.423425 0.576575 0.744308 0.255692 0.565764 0.434236
8
0.0 1.0 1.0 0.0 1.0 0.0 1.0 0.0
8
0.0 1.0 1.0 0.0 1.0 0.0 0.0 1.0
8
0.29026 0.70974 0.917372 0.0826281 0.801499 0.198501 0.75535 0.24465
8
1.0 0.0 1.0 0.0 0.0 1.0 1.0 0.0
8
1.0 0.0 1.0 0.0 0.0 1.0 1.0 0.0
8
1.0 0.0 1.0 0.0 0.0 1.0 0.0 1.0
8
0.0 1.0 0.0 1.0 1.0 0.0 1.0 0.0
4
0.0 1.0 1.0 0.0
8
1.0 0.0 1.0 0.0 0.0 1.0 1.0 0.0
8
1.0 0.0 0.0 1.0 0.0 1.0 0.0 1.0
8
0.0 1.0 0.0 1.0 0.0 1.0 1.0 0.0
8
0.477106 0.522894 0.903334 0.0966661 0.246896 0.753104 0.365565 0.634435
8
0.0 1.0 1.0 0.0 0.0 1.0 0.0 1.0
8
1.0 0.0 1.0 0.0 1.0 0.0 0.0 1.0
8
1.0 0.0 1.0 0.0 0.0 1.0 0.0 1.0
8
1.0 0.0 1.0 0.0 0.0 1.0 0.0 1.0
8
0.0527149 0.947285 0.536022 0.463978 0.27815 0.72185 0.321526 0.678474
8
0.0 1.0 0.0 1.0 0.0 1.0 1.0 0.0
8
0.0 1.0 1.0 0.0 0.0 1.0 0.0 1.0
8
0.0 1.0 1.0 0.0 0.0 1.0 0.0 1.0
8
1.0 0.0 1.0 0.0 1.0 0.0 0.0 1.0
8
0.0 1.0 1.0 0.0 0.0 1.0 0.0 1.0
8
0.0 1.0 0.0 1.0 1.0 0.0 0.0 1.0
4
0.0 1.0 1.0 0.0
8
0.0 1.0 0.0 1.0 1.0 0.0 1.0 0.0
8
0.0 1.0 1.0 0.0 1.0 0.0 0.0 1.0
8
1.0 0.0 0.0 1.0 0.0 1.0 0.0 1.0
8
0.0 1.0 0.0 1.0 1.0 0.0 0.0 1.0
8
1.0 0.0 0.0 1.0 1.0 0.0 1.0 0.0
8
0.0 1.0 1.0 0.0 0.0 1.0 1.0 0.0
8
0.0 1.0 1.0 0.0 0.0 1.0 1.0 0.0
8
1.0 0.0 0.0 1.0 1.0 0.0 1.0 0.0
8
1.0 0.0 1.0 0.0 0.0 1.0 1.0 0.0
8
0.0 1.0 1.0 0.0 1.0 0.0 0.0 1.0
8
1.0 0.0 0.0 1.0 0.0 1.0 0.0 1.0
8
0.0 1.0 0.0 1.0 1.0 0.0 1.0 0.0
8
0.0 1.0 1.0 0.0 0.0 1.0 1.0 0.0
8
1.0 0.0 0.0 1.0 0.0 1.0 0.0 1.0
8
1.0 0.0 1.0 0.0 0.0 1.0 1.0 0.0
4
1.0 0.0 0.0 1.0
8
0.137436 0.862564 0.737079 0.262921 0.0201194 0.979881 0.233804 0.766196
8
0.566909 0.433091 0.119926 0.880074 0.538785 0.461215 0.582382 0.417618
8
0.0 1.0 0.0 1.0 1.0 0.0 1.0 0.0
8
0.557888 0.442112 0.638708 0.361292 0.585474 0.414526 0.76113 0.23887
8
0.0 1.0 1.0 0.0 0.0 1.0 0.0 1.0
8
0.0 1.0 0.0 1.0 0.0 1.0 1.0 0.0
8
0.0 1.0 1.0 0.0 0.0 1.0 1.0 0.0
8
1.0 0.0 1.0 0.0 0.0 1.0 1.0 0.0
8
0.0 1.0 1.0 0.0 1.0 0.0 0.0 1.0
8
1.0 0.0 0.0 1.0 0.0 1.0 1.0 0.0
8
1.0 0.0 0.0 1.0 1.0 0.0 1.0 0.0
8
0.0 1.0 1.0 0.0 0.0 1.0 1.0 0.0
8
0.0 1.0 1.0 0.0 0.0 1.0 0.0 1.0
8
1.0 0.0 1.0 0.0 0.0 1.0 1.0 0.0
8
0.0 1.0 0.0 1.0 0.0 1.0 1.0 0.0
4
1.0 0.0 0.0 1.0
8
0.0 1.0 1.0 0.0 0.0 1.0 0.0 1.0
8
0.441535 0.558465 0.342677 0.657323 0.292622 0.707378 0.336637 0.663363
8
1.0 0.0 1.0 0.0 0.0 1.0 1.0 0.0
8
0.0 1.0 1.0 0.0 1.0 0.0 1.0 0.0
8
1.0 0.0 1.0 0.0 1.0 0.0 0.0 1.0
8
1.0 0.0 1.0 0.0 1.0 0.0 0.0 1.0
8
1.0 0.0 0.0 1.0 0.0 1.0 0.0 1.0
8
0.0 1.0 1.0 0.0 1.0 0.0 0.0 1.0
8
0.0 1.0 0.0 1.0 1.0 0.0 1.0 0.0
8
0.0 1.0 0.0 1.0 1.0 0.0 1.0 0.0
8
0.0 1.0 0.0 1.0 0.0 1.0 1.0 0.0
8
1.0 0.0 0.0 1.0 0.0 1.0 1.0 0.0
8
1.0 0.0 1.0 0.0 0.0 1.0 0.0 1.0
8
0.119744 0.880256 0.854399 0.145601 0.600352 0.399648 0.546179 0.453821
8
0.0 1.0 0.0 1.0 1.0 0.0 0.0 1.0
4
1.0 0.0 0.0 1.0
8
0.0 1.0 1.0 0.0 1.0 0.0 1.0 0.0
8
0.0 1.0 1.0 0.0 1.0 0.0 0.0 1.0
8
0.0914663 0.908534 0.118176 0.881824 0.251161 0.748839 0.473148 0.526852
8
0.0 1.0 1.0 0.0 0.0 1.0 1.0 0.0
8
1.0 0.0 1.0 0.0 0.0 1.0 1.0 0.0
8
0.0 1.0 0.0 1.0 1.0 0.0 1.0 0.0
8
0.0 1.0 0.0 1.0 1.0 0.0 1.0 0.0
8
0.0 1.0 1.0 0.0 0.0 1.0 1.0 0.0
8
0.0 1.0 1.0 0.0 0.0 1.0 1.0 0.0
8
0.0 1.0 1.0 0.0 0.0 1.0 0.0 1.0
8
0.0 1.0 1.0 0.0 1.0 0.0 1.0 0.0
8
0.0 1.0 1.0 0.0 0.0 1.0 1.0 0.0
8
0.0 1.0 1.0 0.0 0.0 1.0 0.0 1.0
8
0.0 1.0 1.0 0.0 0.0 1.0 0.0 1.0
8
0.0 1.0 1.0 0.0 0.0 1.0 1.0 0.0
4
0.0 1.0 1.0 0.0
8
0.0 1.0 1.0 0.0 1.0 0.0 1.0 0.0
8
0.0 1.0 1.0 0.0 0.0 1.0 0.0 1.0
8
0.0 1.0 0.0 1.0 1.0 0.0 1.0 0.0
8
1.0 0.0 1.0 0.0 0.0 1.0 1.0 0.0
8
0.0 1.0 1.0 0.0 0.0 1.0 1.0 0.0
8
0.0 1.0 1.0 0.0 0.0 1.0 0.0 1.0
8
1.0 0.0 1.0 0.0 0.0 1.0 0.0 1.0
8
1.0 0.0 1.0 0.0 0.0 1.0 1.0 0.0
8
0.0 1.0 1.0 0.0 0.0 1.0 1.0 0.0
8
1.0 0.0 0.0 1.0 1.0 0.0 0.0 1.0
8
1.0 0.0 0.0 1.0 1.0 0.0 0.0 1.0
8
1.0 0.0 1.0 0.0 0.0 1.0 1.0 0.0
8
0.0 1.0 1.0 0.0 1.0 0.0 0.0 1.0
8
1.0 0.0 1.0 0.0 0.0 1.0 1.0 0.0
8
0.626511 0.373489 0.398032 0.601968 0.224935 0.775065 0.989785 0.0102151
4
1.0 0.0 0.0 1.0
8
0.0 1.0 0.0 1.0 0.0 1.0 1.0 0.0
8
0.0 1.0 0.0 1.0 0.0 1.0 1.0 0.0
8
1.0 0.0 1.0 0.0 0.0 1.0 0.0 1.0
8
0.95212 0.0478804 0.805428 0.194572 0.809248 0.190752 0.748193 0.251807
8
1.0 0.0 0.0 1.0 0.0 1.0 0.0 1.0
8
0.628107 0.371893 0.660212 0.339788 0.950611 0.049389 0.854315 0.145685
8
0.0 1.0 0.0 1.0 1.0 0.0 1.0 0.0
8
0.0 1.0 1.0 0.0 1.0 0.0 1.0 0.0
8
1.0 0.0 0.0 1.0 0.0 1.0 1.0 0.0
8
0.0 1.0 0.0 1.0 1.0 0.0 0.0 1.0
8
1.0 0.0 1.0 0.0 0.0 1.0 1.0 0.0
8
0.447117 0.552883 0.449995 0.550005 0.911203 0.0887975 0.301432 0.698568
8
1.0 0.0 0.0 1.0 0.0 1.0 0.0 1.0
8
1.0 0.0 0.0 1.0 0.0 1.0 0.0 1.0
8
0.0 1.0 1.0 0.0 0.0 1.0 1.0 0.0
4
0.0 1.0 1.0 0.0
8
1.0 0.0 1.0 0.0 1.0 0.0 0.0 1.0
8
0.0 1.0 0.0 1.0 0.0 1.0 1.0 0.0
8
0.0 1.0 0.0 1.0 1.0 0.0 1.0 0.0
8
0.0 1.0 1.0 0.0 0.0 1.0 1.0 0.0
8
0.0 1.0 0.0 1.0 1.0 0.0 0.0 1.0
8
0.0 1.0 1.0 0.0 1.0 0.0 1.0 0.0
8
1.0 0.0 0.0 1.0 0.0 1.0 0.0 1.0
8
0.0 1.0 1.0 0.0 1.0 0.0 1.0 0.0
8
1.0 0.0 0.0 1.0 1.0 0.0 1.0 0.0
8
0.65394 0.34606 0.514093 0.485907 0.0628331 0.937167 0.769963 0.230037
8
1.0 0.0 0.0 1.0 1.0 0.0 1.0 0.0
8
0.0 1.0 1.0 0.0 1.0 0.0 1.0 0.0
8
1.0 0.0 0.0 1.0 1.0 0.0 0.0 1.0
8
0.0 1.0 1.0 0.0 0.0 1.0 1.0 0.0
8
1.0 0.0 1.0 0.0 0.0 1.0 0.0 1.0
4
0.0 1.0 1.0 0.0
8
1.0 0.0 1.0 0.0 0.0 1.0 0.0 1.0
8
0.0 1.0 1.0 0.0 1.0 0.0 0.0 1.0
8
0.0 1.0 0.0 1.0 1.0 0.0 0.0 1.0
8
1.0 0.0 1.0 0.0 1.0 0.0 0.0 1.0
8
0.792396 0.207604 0.496382 0.503618 0.373599 0.626401 0.639805 0.360195
8
1.0 0.0 0.0 1.0 0.0 1.0 0.0 1.0
8
1.0 0.0 0.0 1.0 1.0 0.0 1.0 0.0
8
0.960106 0.039894 0.81993 0.18007 0.278151 0.721849 0.00332496 0.996675
8
0.0 1.0 0.0 1.0 1.0 0.0 1.0 0.0
8
0.0 1.0 1.0 0.0 0.0 1.0 0.0 1.0
8
0.0 1.0 1.0 0.0 1.0 0.0 0.0 1.0
8
0.403141 0.596859 0.27154 0.72846 0.281585 0.718415 0.521361 0.478639
8
0.0 1.0 0.0 1.0 0.0 1.0 1.0 0.0
8
0.821345 0.178655 0.957441 0.0425586 0.748209 0.251791 0.0994955 0.900504
8
0.210075 0.789925 0.346297 0.653703 0.102948 0.897052 0.194692 0.805308